p cnf 999
886 0
897 0
928 0
937 0

p cnf 999
886 0
897 0
928 0
937 0

p cnf 999
886 0
897 0
928 0
937 0

p cnf 999
886 0
897 0
928 0
937 0

p cnf 999
886 0
897 0
928 0
937 0

p cnf 999
886 0
897 0
928 0
937 0

p cnf 999
886 0
897 0
928 0
937 0

p cnf 999
886 0
897 0
928 0
937 0

p cnf 999
886 0
897 0
928 0
937 0

p cnf 999
886 0
897 0
928 0
937 0

p cnf 999
886 0
897 0
928 0
937 0

